JulietBench/Juliet_Based_Patch_Bench/qemu/CWE-369-Divide-By-Zero/CVE_2014_0142_8e53abbc20d08ae3ec30c2054e1161314ad9501d/Resultbochs_open_Snippet_patch1EQ.smt2
; benchmark generated from python API
(set-info :status unknown)
(declare-fun R () (_ BitVec 32))
(declare-fun rdi () (_ BitVec 64))
(assert
 (let (($x30204 (= (_ bv4294967274 32) R)))
 (let ((?x6 ((_ extract 31 0) rdi)))
 (let (($x43 (= (_ bv0 32) ?x6)))
 (let (($x30058 (and $x43 $x30204)))
 (let (($x17 (and (distinct (_ bv0 32) ?x6) true)))
 (let (($x70976 (bvugt ?x6 (_ bv8388608 32))))
 (let (($x31013 (and $x70976 $x17 $x30204)))
 (let ((?x21 (concat (_ bv0 96) ?x6)))
 (let ((?x63 (bvsdiv (_ bv9223372036854775807 128) ?x21)))
 (let ((?x64 ((_ extract 31 0) ?x63)))
 (let (($x69059 (= R ?x64)))
 (let (($x71 (bvule ?x6 (_ bv8388608 32))))
 (let ((?x7 ((_ zero_extend 32) ?x6)))
 (let ((?x11 ((_ sign_extend 64) ?x7)))
 (let ((?x12 (bvsdiv (_ bv9223372036854775807 128) ?x11)))
 (let ((?x13 ((_ extract 63 0) ?x12)))
 (let (($x32 (bvslt (_ bv4294967295 64) ?x13)))
 (let (($x29876 (and $x32 $x71 $x17 $x69059)))
 (let (($x31016 (or $x29876 $x31013 $x30058)))
 (let (($x30455 (= (_ bv0 32) R)))
 (let (($x58 (bvsge (_ bv4294967295 64) ?x13)))
 (let (($x30836 (and $x58 $x17 $x30455)))
 (let (($x30637 (and $x32 $x17 $x69059)))
 (let (($x30459 (or $x30637 $x30836)))
 (and $x30459 $x31016))))))))))))))))))))))))))
(check-sat)
